(set-info :smt-lib-version 2.6)
(set-logic UF)
(set-info :source |Benchmarks from the paper: "Extending Sledgehammer with SMT Solvers" by Jasmin Blanchette, Sascha Bohme, and Lawrence C. Paulson, CADE 2011.  Translated to SMT2 by Andrew Reynolds and Morgan Deters.|)
(set-info :category "industrial")
(set-info :status sat)
(declare-sort S1 0)
(declare-sort S2 0)
(declare-sort S3 0)
(declare-sort S4 0)
(declare-sort S5 0)
(declare-sort S6 0)
(declare-sort S7 0)
(declare-sort S8 0)
(declare-fun f1 () S1)
(declare-fun f2 () S1)
(declare-fun f3 (S2 S3) S1)
(declare-fun f4 (S4 S3) S2)
(declare-fun f5 () S4)
(declare-fun f6 () S3)
(declare-fun f7 () S3)
(declare-fun f8 (S5 S3) S3)
(declare-fun f9 (S6 S3) S5)
(declare-fun f10 () S6)
(declare-fun f11 () S5)
(declare-fun f12 () S6)
(declare-fun f13 () S2)
(declare-fun f14 (S7 S2) S1)
(declare-fun f15 () S7)
(declare-fun f16 (S8 S3) S7)
(declare-fun f17 () S8)
(assert (not (= f1 f2)))
(assert (not (= (f3 (f4 f5 f6) f7) f1)))
(assert (not (= f7 f6)))
(assert (forall ((?v0 S3)) (= (f3 (f4 f5 ?v0) ?v0) f1)))
(assert (= (f3 (f4 f5 f6) f6) f1))
(assert (forall ((?v0 S3) (?v1 S1) (?v2 S1)) (let ((?v_0 (= (f3 (f4 f5 f6) ?v0) f1)) (?v_1 (= ?v1 f1)) (?v_2 (= ?v2 f1))) (=> (=> ?v_0 (= ?v_1 ?v_2)) (= (and ?v_0 ?v_1) (and ?v_0 ?v_2))))))
(assert (forall ((?v0 S3) (?v1 S1) (?v2 S1)) (let ((?v_0 (= (f3 (f4 f5 f6) ?v0) f1)) (?v_1 (= ?v1 f1)) (?v_2 (= ?v2 f1))) (=> (=> ?v_0 (= ?v_1 ?v_2)) (= (=> ?v_0 ?v_1) (=> ?v_0 ?v_2))))))
(assert (forall ((?v0 S3)) (= (f3 (f4 f5 ?v0) ?v0) f1)))
(assert (forall ((?v0 S3) (?v1 S3)) (or (= (f3 (f4 f5 ?v0) ?v1) f1) (= (f3 (f4 f5 ?v1) ?v0) f1))))
(assert (forall ((?v0 S3) (?v1 S3) (?v2 S3)) (let ((?v_0 (f4 f5 ?v0))) (=> (= (f3 ?v_0 ?v1) f1) (=> (= (f3 (f4 f5 ?v1) ?v2) f1) (= (f3 ?v_0 ?v2) f1))))))
(assert (forall ((?v0 S3) (?v1 S3)) (=> (= (f3 (f4 f5 ?v0) ?v1) f1) (=> (= (f3 (f4 f5 ?v1) ?v0) f1) (= ?v0 ?v1)))))
(assert (forall ((?v0 S3) (?v1 S3)) (or (= (f3 (f4 f5 ?v0) ?v1) f1) (= (f3 (f4 f5 ?v1) ?v0) f1))))
(assert (forall ((?v0 S3) (?v1 S3)) (= (= ?v0 ?v1) (and (= (f3 (f4 f5 ?v0) ?v1) f1) (= (f3 (f4 f5 ?v1) ?v0) f1)))))
(assert (forall ((?v0 S3) (?v1 S3)) (=> (= ?v0 ?v1) (= (f3 (f4 f5 ?v0) ?v1) f1))))
(assert (forall ((?v0 S3) (?v1 S3)) (=> (=> (= (f3 (f4 f5 ?v0) ?v1) f1) false) (=> (=> (= (f3 (f4 f5 ?v1) ?v0) f1) false) false))))
(assert (forall ((?v0 S3) (?v1 S3) (?v2 S3)) (let ((?v_0 (f4 f5 ?v2))) (=> (= (f3 (f4 f5 ?v0) ?v1) f1) (=> (= (f3 ?v_0 ?v0) f1) (= (f3 ?v_0 ?v1) f1))))))
(assert (forall ((?v0 S3) (?v1 S3)) (=> (= (f3 (f4 f5 ?v0) ?v1) f1) (=> (= (f3 (f4 f5 ?v1) ?v0) f1) (= ?v1 ?v0)))))
(assert (forall ((?v0 S3) (?v1 S3) (?v2 S3)) (let ((?v_0 (f4 f5 ?v0))) (=> (= (f3 ?v_0 ?v1) f1) (=> (= (f3 (f4 f5 ?v1) ?v2) f1) (= (f3 ?v_0 ?v2) f1))))))
(assert (forall ((?v0 S3) (?v1 S3)) (=> (= (f3 (f4 f5 ?v0) ?v1) f1) (=> (= (f3 (f4 f5 ?v1) ?v0) f1) (= ?v0 ?v1)))))
(assert (forall ((?v0 S3) (?v1 S3) (?v2 S3)) (=> (= (f3 (f4 f5 ?v0) ?v1) f1) (=> (= ?v0 ?v2) (= (f3 (f4 f5 ?v2) ?v1) f1)))))
(assert (forall ((?v0 S3) (?v1 S3) (?v2 S3)) (let ((?v_0 (f4 f5 ?v0))) (=> (= (f3 ?v_0 ?v1) f1) (=> (= ?v1 ?v2) (= (f3 ?v_0 ?v2) f1))))))
(assert (forall ((?v0 S3) (?v1 S3) (?v2 S3)) (let ((?v_0 (f4 f5 ?v2))) (=> (= ?v0 ?v1) (=> (= (f3 ?v_0 ?v1) f1) (= (f3 ?v_0 ?v0) f1))))))
(assert (forall ((?v0 S3) (?v1 S3) (?v2 S3)) (=> (= ?v0 ?v1) (=> (= (f3 (f4 f5 ?v1) ?v2) f1) (= (f3 (f4 f5 ?v0) ?v2) f1)))))
(assert (forall ((?v0 S3) (?v1 S3)) (=> (= (f3 (f4 f5 ?v0) ?v1) f1) (= (= (f3 (f4 f5 ?v1) ?v0) f1) (= ?v1 ?v0)))))
(assert (forall ((?v0 S3) (?v1 S3)) (let ((?v_0 (f4 f5 f6))) (=> (= (f3 ?v_0 ?v0) f1) (=> (= (f3 ?v_0 ?v1) f1) (= (f3 ?v_0 (f8 (f9 f10 ?v0) ?v1)) f1))))))
(assert (forall ((?v0 S3) (?v1 S5) (?v2 S3) (?v3 S3)) (=> (= ?v0 (f8 ?v1 ?v2)) (=> (= (f3 (f4 f5 ?v3) ?v2) f1) (=> (forall ((?v4 S3) (?v5 S3)) (=> (= (f3 (f4 f5 ?v5) ?v4) f1) (= (f3 (f4 f5 (f8 ?v1 ?v5)) (f8 ?v1 ?v4)) f1))) (= (f3 (f4 f5 (f8 ?v1 ?v3)) ?v0) f1))))))
(assert (forall ((?v0 S3) (?v1 S3) (?v2 S5) (?v3 S3)) (=> (= (f3 (f4 f5 ?v0) ?v1) f1) (=> (= (f8 ?v2 ?v0) ?v3) (=> (forall ((?v4 S3) (?v5 S3)) (=> (= (f3 (f4 f5 ?v5) ?v4) f1) (= (f3 (f4 f5 (f8 ?v2 ?v5)) (f8 ?v2 ?v4)) f1))) (= (f3 (f4 f5 ?v3) (f8 ?v2 ?v1)) f1))))))
(assert (forall ((?v0 S3)) (= (= (f3 (f4 f5 (f8 f11 ?v0)) f6) f1) (= (f3 (f4 f5 ?v0) f6) f1))))
(assert (forall ((?v0 S3) (?v1 S3)) (= (= (f8 f11 ?v0) (f8 f11 ?v1)) (= ?v0 ?v1))))
(assert (= (f8 f11 f6) f6))
(assert (forall ((?v0 S3)) (= (= f6 (f8 f11 ?v0)) (= ?v0 f6))))
(assert (forall ((?v0 S3)) (= (= (f8 f11 ?v0) f6) (= ?v0 f6))))
(assert (forall ((?v0 S3) (?v1 S3)) (= (= (f3 (f4 f5 (f8 f11 ?v0)) (f8 f11 ?v1)) f1) (= (f3 (f4 f5 ?v0) ?v1) f1))))
(assert (forall ((?v0 S3)) (let ((?v_0 (f4 f5 f6))) (= (= (f3 ?v_0 (f8 f11 ?v0)) f1) (= (f3 ?v_0 ?v0) f1)))))
(assert (forall ((?v0 S3) (?v1 S3)) (= (f8 (f9 f10 ?v0) ?v1) (ite (= (f3 (f4 f5 ?v1) ?v0) f1) (f8 (f9 f12 ?v0) ?v1) f6))))
(assert (forall ((?v0 S3)) (= (= f6 ?v0) (= ?v0 f6))))
(assert (forall ((?v0 S3)) (= (= (f3 f13 ?v0) f1) (= (f3 (f4 f5 f6) ?v0) f1))))
(assert (forall ((?v0 S2)) (= (= (f14 f15 ?v0) f1) (forall ((?v1 S3)) (=> (= (f14 (f16 f17 ?v1) ?v0) f1) (= (f3 (f4 f5 f6) ?v1) f1))))))
(assert (forall ((?v0 S2) (?v1 S3)) (=> (= (f14 f15 ?v0) f1) (=> (= (f14 (f16 f17 ?v1) ?v0) f1) (= (f3 (f4 f5 f6) ?v1) f1)))))
(assert (forall ((?v0 S3) (?v1 S3)) (= (f8 f11 (f8 (f9 f12 ?v0) ?v1)) (f8 (f9 f12 (f8 f11 ?v0)) (f8 f11 ?v1)))))
(assert (forall ((?v0 S3)) (= (f8 (f9 f12 ?v0) f6) ?v0)))
(assert (forall ((?v0 S3)) (= (f8 (f9 f12 ?v0) ?v0) f6)))
(assert (forall ((?v0 S3) (?v1 S3)) (= (= ?v0 ?v1) (= (f8 (f9 f12 ?v0) ?v1) f6))))
(assert (forall ((?v0 S3) (?v1 S3)) (= (= (f8 (f9 f12 ?v0) ?v1) f6) (= ?v0 ?v1))))
(assert (forall ((?v0 S3) (?v1 S3) (?v2 S3) (?v3 S3)) (=> (= (f8 (f9 f12 ?v0) ?v1) (f8 (f9 f12 ?v2) ?v3)) (= (= (f3 (f4 f5 ?v0) ?v1) f1) (= (f3 (f4 f5 ?v2) ?v3) f1)))))
(assert (forall ((?v0 S3) (?v1 S3) (?v2 S3) (?v3 S3)) (=> (= (f8 (f9 f12 ?v0) ?v1) (f8 (f9 f12 ?v2) ?v3)) (= (= ?v0 ?v1) (= ?v2 ?v3)))))
(assert (forall ((?v0 S2) (?v1 S3)) (=> (= (f14 f15 ?v0) f1) (=> (= (f14 (f16 f17 ?v1) ?v0) f1) (= (f3 f13 ?v1) f1)))))
(check-sat)
(exit)
